# Objective value = 13
x_QB_1 0
x_QB_2 0
x_QB_3 0
x_QB_4 1
x_QB_5 0
x_QB_6 0
x_QB_7 0
x_QB_8 0
x_QB_9 0
x_QB_10 0
x_QB_11 0
x_QB_12 0
x_QB_13 0
x_QB_14 0
x_QB_15 0
x_QB_16 0
x_QB_17 0
x_QB_18 0
x_QB_19 0
x_QB_20 0
x_RB_1 0
x_RB_2 0
x_RB_3 0
x_RB_4 0
x_RB_5 0
x_RB_6 0
x_RB_7 0
x_RB_8 0
x_RB_9 0
x_RB_10 0
x_RB_11 0
x_RB_12 0
x_RB_13 0
x_RB_14 0
x_RB_15 0
x_RB_16 0
x_RB_17 0
x_RB_18 0
x_RB_19 0
x_RB_20 7
x_WR_1 0
x_WR_2 0
x_WR_3 0
x_WR_4 0
x_WR_5 0
x_WR_6 2
x_WR_7 0
x_WR_8 0
x_WR_9 0
x_WR_10 0
x_WR_11 0
x_WR_12 0
x_WR_13 0
x_WR_14 0
x_WR_15 0
x_WR_16 0
x_WR_17 0
x_WR_18 0
x_WR_19 0
x_WR_20 0
x_TE_1 0
x_TE_2 0
x_TE_3 0
x_TE_4 0
x_TE_5 0
x_TE_6 0
x_TE_7 0
x_TE_8 0
x_TE_9 0
x_TE_10 0
x_TE_11 0
x_TE_12 1
x_TE_13 0
x_TE_14 0
x_TE_15 0
x_TE_16 0
x_TE_17 0
x_TE_18 0
x_TE_19 0
x_TE_20 0
x_DST_1 0
x_DST_2 0
x_DST_3 0
x_DST_4 0
x_DST_5 0
x_DST_6 0
x_DST_7 0
x_DST_8 0
x_DST_9 0
x_DST_10 0
x_DST_11 0
x_DST_12 0
x_DST_13 0
x_DST_14 0
x_DST_15 0
x_DST_16 0
x_DST_17 0
x_DST_18 0
x_DST_19 0
x_DST_20 1
x_K_1 0
x_K_2 0
x_K_3 0
x_K_4 0
x_K_5 0
x_K_6 0
x_K_7 0
x_K_8 0
x_K_9 0
x_K_10 0
x_K_11 0
x_K_12 0
x_K_13 0
x_K_14 0
x_K_15 0
x_K_16 0
x_K_17 0
x_K_18 0
x_K_19 0
x_K_20 1
